(declare-datatypes () ((Nat (Z) (S (p Nat)))))
(declare-datatypes () ((list (nil) (cons (head Nat) (tail list)))))
(declare-fun zelem (Nat list) Bool)
(declare-fun zdelete (Nat list) list)
(declare-fun null (list) Bool)
(declare-fun zisPermutation (list list) Bool)
(declare-fun insert2 (Nat list) list)
(declare-fun isort (list) list)
(declare-fun le (Nat Nat) Bool)
(declare-fun equal (Nat Nat) Bool)
(assert (forall ((x Nat)) (= (zelem x nil) false)))
(assert
  (forall ((x Nat) (z Nat) (ys list))
    (= (zelem x (cons z ys)) (or (equal x z) (zelem x ys)))))
(assert (forall ((x Nat)) (= (zdelete x nil) nil)))
(assert
  (forall ((x Nat) (z Nat) (ys list))
    (=> (= (equal x z) true) (= (zdelete x (cons z ys)) ys))))
(assert
  (forall ((x Nat) (z Nat) (ys list))
    (=> (= (equal x z) false)
      (= (zdelete x (cons z ys)) (cons z (zdelete x ys))))))
(assert (= (null nil) true))
(assert (forall ((y Nat) (z list)) (= (null (cons y z)) false)))
(assert (forall ((y list)) (= (zisPermutation nil y) (null y))))
(assert
  (forall ((y list) (z Nat) (xs list))
    (= (zisPermutation (cons z xs) y)
      (and (zelem z y) (zisPermutation xs (zdelete z y))))))
(assert (forall ((x Nat)) (= (insert2 x nil) (cons x nil))))
(assert
  (forall ((x Nat) (z Nat) (xs list))
    (=> (= (le x z) true)
      (= (insert2 x (cons z xs)) (cons x (cons z xs))))))
(assert
  (forall ((x Nat) (z Nat) (xs list))
    (=> (= (le x z) false)
      (= (insert2 x (cons z xs)) (cons z (insert2 x xs))))))
(assert (= (isort nil) nil))
(assert
  (forall ((y Nat) (xs list))
    (= (isort (cons y xs)) (insert2 y (isort xs)))))
(assert (forall ((y Nat)) (= (le Z y) true)))
(assert (forall ((z Nat)) (= (le (S z) Z) false)))
(assert
  (forall ((z Nat) (x2 Nat)) (= (le (S z) (S x2)) (le z x2))))
(assert (= (equal Z Z) true))
(assert (forall ((z Nat)) (= (equal Z (S z)) false)))
(assert (forall ((x2 Nat)) (= (equal (S x2) Z) false)))
(assert
  (forall ((x2 Nat) (y2 Nat))
    (= (equal (S x2) (S y2)) (equal x2 y2))))
(assert-not (forall ((x list)) (zisPermutation (isort x) x)))
(check-sat)
